WARNING: for repeatability, setting FPU to use double precision
============================[ Problem Statistics ]=============================
|                                                                             |
|  Number of variables:           100                                         |
|  Number of clauses:             449                                         |
|  Parse time:                   0.00 s                                       |
|  Eliminated clauses:           0.00 Mb                                      |
|  Simplification time:          0.00 s                                       |
|                                                                             |
============================[ Search Statistics ]==============================
| Conflicts |          ORIGINAL         |          LEARNT          | Progress |
|           |    Vars  Clauses Literals |    Limit  Clauses Lit/Cl |          |
===============================================================================
|       100 |      95      438     1344 |      160      100      7 |  0.010 % |
|       250 |      95      438     1344 |      176      168      6 |  0.010 % |
===============================================================================
restarts              : 3
conflicts             : 284            (80935 /sec)
decisions             : 363            (0.00 % random) (103448 /sec)
propagations          : 6350           (1809632 /sec)
conflict literals     : 1773           (18.11 % deleted)
Memory used           : 13.00 MB
CPU time              : 0.003509 s

SATISFIABLE
